c Reduced graph for r125.1_4 generated by Cyril Grelier
p edge 86 149
e 1 2
e 1 3
e 1 4
e 1 8
e 1 12
e 1 15
e 1 25
e 1 26
e 2 3
e 2 12
e 2 13
e 2 17
e 2 25
e 2 32
e 3 8
e 3 12
e 3 15
e 3 25
e 4 8
e 4 15
e 4 19
e 4 26
e 4 34
e 5 6
e 5 7
e 5 9
e 5 37
e 5 46
e 5 48
e 6 7
e 6 9
e 6 37
e 6 55
e 6 57
e 7 9
e 7 37
e 7 55
e 7 57
e 8 12
e 8 15
e 8 26
e 9 37
e 9 46
e 9 48
e 10 11
e 10 18
e 10 20
e 10 22
e 10 41
e 11 18
e 11 36
e 11 41
e 11 49
e 12 25
e 13 17
e 13 32
e 13 36
e 13 49
e 14 29
e 14 30
e 14 31
e 14 33
e 14 47
e 15 26
e 16 21
e 16 23
e 16 24
e 16 35
e 16 51
e 17 19
e 17 32
e 17 38
e 18 20
e 18 22
e 18 41
e 19 34
e 19 38
e 19 44
e 20 22
e 20 39
e 21 23
e 21 24
e 21 35
e 22 39
e 23 24
e 23 35
e 24 35
e 27 63
e 27 71
e 27 72
e 27 74
e 28 40
e 28 42
e 28 43
e 28 52
e 29 30
e 29 31
e 29 33
e 30 31
e 30 33
e 31 33
e 32 36
e 34 38
e 34 44
e 36 49
e 38 44
e 39 84
e 40 42
e 40 43
e 42 43
e 45 68
e 45 82
e 45 84
e 46 48
e 47 64
e 47 66
e 50 60
e 50 61
e 50 83
e 51 52
e 51 65
e 52 65
e 53 54
e 53 62
e 53 78
e 54 78
e 54 83
e 55 57
e 56 62
e 56 77
e 56 86
e 58 75
e 58 81
e 59 67
e 59 79
e 60 61
e 63 74
e 64 66
e 67 79
e 68 82
e 69 73
e 69 76
e 70 80
e 70 85
e 71 72
e 73 76
e 75 81
e 77 86
e 80 85
